Route #1: 18 5 50 39 7 28 4 43
Route #2: 23 29 1 17 10 15 35
Route #3: 20 49 36 45 26 21 33 9 38
Route #4: 44 3 22 53
Route #5: 32 37 48 40 31 8 19 11 13
Route #6: 14 2 12 27 6 16
Route #7: 30 25 47 51 24 42 46 41 34 52
Cost 1170
Time 0.081832
